p cnf 10 43
-2 8 10 0
-2 -5 -6 0
-5 -7 -8 0
-3 -9 10 0
-8 -9 10 0
4 7 -10 0
8 9 10 0
1 -2 -3 0
-4 7 -9 0
-4 -7 -10 0
3 -8 10 0
3 -6 9 0
2 -8 -9 0
-4 -6 7 0
3 6 -7 0
-4 8 -9 0
-4 6 7 0
5 7 -10 0
1 4 -8 0
1 3 9 0
-1 4 5 0
-2 -5 -9 0
3 -6 -8 0
1 6 9 0
-5 7 -10 0
-1 -8 10 0
1 2 -3 0
1 3 -7 0
-1 -5 -7 0
6 -7 -10 0
3 -7 -9 0
8 9 -10 0
2 5 8 0
4 -9 -10 0
-2 4 6 0
-1 4 -5 0
-2 -4 7 0
-2 -4 -9 0
-3 -6 -9 0
-1 -2 4 0
-1 -3 -9 0
-4 -8 9 0
-2 5 -10 0
